50
100
100
99
94
92
92
92
89
88
85
83
83
80
79
79
79
79
77
74
74
73
71
70
69
68
65
62
62
62
61
61
58
56
56
55
55
55
48
47
46
46
44
43
43
43
40
40
36
35
32
30
